NAME : 10_3_3_1_(11).dat
COMMENT : Henke, Speranza, Wäscher, 2015
TYPE : MCVRP
DIMENSION : 11
EDGE_WEIGHT_TYPE : DISTANCE_MATRIX
CAPACITY : 1000
VEHICLES : 2
PRODUCT TYPES : 3
COMPARTMENTS : 3
NODE_COORD_SECTION
1 50 50
2 95.98 39.06
3 25.75 68.09
4 25.55 94.75
5 2.78 30.05
6 14.14 52.78
7 43.34 10.66
8 86.53 70.68
9 11.01 8.47
10 85.03 11.72
11 19.83 6
DEMAND_SECTION
1 0 0 0
2 0 158 0
3 0 0 112
4 245 0 0
5 43 0 0
6 267 0 0
7 0 10 0
8 0 0 159
9 93 0 0
10 31 0 0
11 0 238 0
DEPOT_SECTION
1
EOF